h 1 -2 0
h 3 -4 0
h -3 -1 0
h -2 5 0
h 6 -4 2 0
h -2 6 4 0
1 -6 0
h -7 3 8 0
h 7 -3 8 0
1 -8 0
h -9 0
h 10 0
h 11 -5 -1 0
1 -11 0
h 12 13 0
h -7 -4 0
h -14 0
h 2 4 0
h 15 0
h 16 0
h -17 18 0
h 19 0
h -7 20 0
h 21 -22 0
h 23 0
h 7 24 21 0
1 -24 0
h 25 0
h 21 26 22 0
1 -26 0
h 27 0
h -21 2 0
h 28 -5 0
h 7 -5 0
h 29 0
h 30 31 0
h 32 0
h 33 -28 -7 0
h 34 0
h 35 0
h 36 0
h -28 37 0
h 38 0
h 39 0
h 2 40 0
h 41 0
